210518
541349
703513
696099
659015
275783
248000
751817
363551
755086
120471
675458
345096
799501
208157
468832
377510
991630
128200
289569
142753
554918
430365
735386
337025
322804
275426
485887
872626
262902
954348
935121
701030
147975
686866
313060
850777
443193
241858
438732
610288
94091
267569
899364
360763
952647
697070
344314
508506
313275
391248
286682
840251
735633
171086
486582
663681
641421
559981
117423
966272
267299
352020
680194
619173
134387
895611
860178
478003
19874
716162
166926
739240
942742
481246
993534
938622
414349
776046
943535
586637
961819
678252
60537
983629
886910
705854
390954
826938
343775
756460
364689
579280
978792
931565
803240
886646
13372
827034
420831
